c CNF file generated from BLIF2CNF script.
c Original BLIF file was -
p cnf 21 50
-1 -3 0
3 1  0
-3 2 0
-2 3  0
-4 -6 0
6 4  0
-6 5 0
-5 6  0
-7 -9 0
9 7  0
-9 8 0
-8 9  0
10 -12 0
11 -12 0
12 -10 -11  0
-12 1 0
-10 -13 0
-11 -13 0
13 10 11  0
-13 1 0
-1 12 13  0
-10 -14 0
11 -14 0
14 10 -11  0
-14 4 0
10 -15 0
-11 -15 0
15 -10 11  0
-15 4 0
10 -16 0
7 -16 0
16 -10 -7  0
-16 4 0
11 -17 0
7 -17 0
17 -11 -7  0
-17 4 0
-10 -18 0
-7 -18 0
18 10 7  0
-18 4 0
-11 -19 0
-7 -19 0
19 11 7  0
-19 4 0
-4 14 15 16 17 18 19  0
7 -21 0
21 -7  0
-21 20 0
-20 21  0
